31
0 0
3 14
37
20
3 0
8 13
39
21
8 0
20 5
40
21
8 5
21 9
36
20
21 0
24 28
34
18
8 9
21 15
33
18
24 0
28 20
38
20
3 13
7 34
35
19
7 15
13 21
29
17
13 15
21 21
31
17
28 0
31 9
32
17
24 20
28 24
30
17
28 9
30 40
19
12
7 21
12 28
28
16
0 14
3 45
27
15
12 21
15 51
25
14
15 21
20 31
23
14
7 28
12 34
24
14
15 31
27 39
22
13
3 34
10 49
21
12
15 39
18 68
20
12
10 34
12 54
26
14
18 39
21 60
18
11
21 39
25 60
17
10
25 40
29 63
15
9
0 49
7 61
16
9
7 54
11 61
14
8
0 61
11 68
12
7
29 40
31 55
13
7
12 51
15 65
11
6
18 60
22 66
10
5
22 63
29 78
6
4
0 68
7 79
7
4
7 68
18 74
9
4
29 55
31 79
3
1
18 66
21 76
5
3
7 74
12 79
4
2
12 74
16 85
2
1
16 78
27 85
0
1
0 79
4 85
8
4
4 79
11 85
1
1
